Gurobi/ascon_2.sol
# Objective value = 4
d_0_0 0
d_0_1 0
d_0_2 0
d_0_3 0
d_0_4 0
d_0_5 0
d_0_6 0
d_0_7 0
d_0_8 0
d_0_9 0
d_0_10 0
d_0_11 0
d_0_12 0
d_0_13 0
d_0_14 0
d_0_15 0
d_0_16 0
d_0_17 0
d_0_18 0
d_0_19 0
d_0_20 0
d_0_21 0
d_0_22 0
d_0_23 0
d_0_24 0
d_0_25 0
d_0_26 0
d_0_27 0
d_0_28 0
d_0_29 0
d_0_30 0
d_0_31 0
d_0_32 0
d_0_33 0
d_0_34 0
d_0_35 0
d_0_36 0
d_0_37 0
d_0_38 0
d_0_39 0
d_0_40 0
d_0_41 0
d_0_42 0
d_0_43 0
d_0_44 0
d_0_45 0
d_0_46 0
d_0_47 0
d_0_48 0
d_0_49 1
d_0_50 0
d_0_51 0
d_0_52 0
d_0_53 0
d_0_54 0
d_0_55 0
d_0_56 0
d_0_57 0
d_0_58 0
d_0_59 0
d_0_60 0
d_0_61 0
d_0_62 0
d_0_63 0
d_1_0 0
d_1_1 0
d_1_2 0
d_1_3 0
d_1_4 0
d_1_5 0
d_1_6 0
d_1_7 0
d_1_8 0
d_1_9 0
d_1_10 0
d_1_11 0
d_1_12 0
d_1_13 0
d_1_14 0
d_1_15 0
d_1_16 0
d_1_17 0
d_1_18 0
d_1_19 0
d_1_20 0
d_1_21 0
d_1_22 0
d_1_23 0
d_1_24 0
d_1_25 0
d_1_26 0
d_1_27 0
d_1_28 0
d_1_29 0
d_1_30 0
d_1_31 0
d_1_32 0
d_1_33 0
d_1_34 0
d_1_35 0
d_1_36 0
d_1_37 0
d_1_38 0
d_1_39 0
d_1_40 0
d_1_41 0
d_1_42 0
d_1_43 0
d_1_44 0
d_1_45 0
d_1_46 0
d_1_47 0
d_1_48 0
d_1_49 1
d_1_50 1
d_1_51 0
d_1_52 0
d_1_53 0
d_1_54 0
d_1_55 1
d_1_56 0
d_1_57 0
d_1_58 0
d_1_59 0
d_1_60 0
d_1_61 0
d_1_62 0
d_1_63 0
x_0_0_0 0
x_0_1_0 0
x_0_2_0 0
x_0_3_0 0
x_0_4_0 0
y_0_0_0 0
y_0_1_0 0
y_0_2_0 0
y_0_3_0 0
y_0_4_0 0
y_0_0_45 0
y_0_0_36 0
x_1_0_0 0
u_0_0_0 0
y_0_1_3 0
y_0_1_25 0
x_1_1_0 0
u_0_1_0 0
y_0_2_63 0
y_0_2_58 0
x_1_2_0 0
u_0_2_0 0
y_0_3_54 0
y_0_3_47 0
x_1_3_0 0
u_0_3_0 0
y_0_4_57 0
y_0_4_23 0
x_1_4_0 0
u_0_4_0 0
x_0_0_1 0
x_0_1_1 0
x_0_2_1 0
x_0_3_1 0
x_0_4_1 0
y_0_0_1 0
y_0_1_1 0
y_0_2_1 0
y_0_3_1 0
y_0_4_1 0
y_0_0_46 0
y_0_0_37 0
x_1_0_1 0
u_0_0_1 0
y_0_1_4 0
y_0_1_26 0
x_1_1_1 0
u_0_1_1 0
y_0_2_59 0
x_1_2_1 0
u_0_2_1 0
y_0_3_55 0
y_0_3_48 0
x_1_3_1 0
u_0_3_1 0
y_0_4_58 0
y_0_4_24 0
x_1_4_1 0
u_0_4_1 0
x_0_0_2 0
x_0_1_2 0
x_0_2_2 0
x_0_3_2 0
x_0_4_2 0
y_0_0_2 0
y_0_1_2 0
y_0_2_2 0
y_0_3_2 0
y_0_4_2 0
y_0_0_47 0
y_0_0_38 0
x_1_0_2 0
u_0_0_2 0
y_0_1_5 0
y_0_1_27 0
x_1_1_2 0
u_0_1_2 0
y_0_2_60 0
x_1_2_2 0
u_0_2_2 0
y_0_3_56 0
y_0_3_49 0
x_1_3_2 0
u_0_3_2 0
y_0_4_59 0
y_0_4_25 0
x_1_4_2 0
u_0_4_2 0
x_0_0_3 0
x_0_1_3 0
x_0_2_3 0
x_0_3_3 0
x_0_4_3 0
y_0_0_3 0
y_0_2_3 0
y_0_3_3 0
y_0_4_3 0
y_0_0_48 0
y_0_0_39 0
x_1_0_3 0
u_0_0_3 0
y_0_1_6 0
y_0_1_28 0
x_1_1_3 0
u_0_1_3 0
y_0_2_61 0
x_1_2_3 0
u_0_2_3 0
y_0_3_57 0
y_0_3_50 0
x_1_3_3 0
u_0_3_3 0
y_0_4_60 0
y_0_4_26 0
x_1_4_3 0
u_0_4_3 0
x_0_0_4 0
x_0_1_4 0
x_0_2_4 0
x_0_3_4 0
x_0_4_4 0
y_0_0_4 0
y_0_2_4 0
y_0_3_4 0
y_0_4_4 0
y_0_0_49 0
y_0_0_40 0
x_1_0_4 0
u_0_0_4 0
y_0_1_7 0
y_0_1_29 0
x_1_1_4 0
u_0_1_4 0
y_0_2_62 0
x_1_2_4 0
u_0_2_4 0
y_0_3_58 0
y_0_3_51 0
x_1_3_4 0
u_0_3_4 0
y_0_4_61 0
y_0_4_27 0
x_1_4_4 0
u_0_4_4 0
x_0_0_5 0
x_0_1_5 0
x_0_2_5 0
x_0_3_5 0
x_0_4_5 0
y_0_0_5 0
y_0_2_5 0
y_0_3_5 0
y_0_4_5 0
y_0_0_50 0
y_0_0_41 0
x_1_0_5 0
u_0_0_5 0
y_0_1_8 0
y_0_1_30 0
x_1_1_5 0
u_0_1_5 0
x_1_2_5 0
u_0_2_5 0
y_0_3_59 0
y_0_3_52 0
x_1_3_5 0
u_0_3_5 0
y_0_4_62 0
y_0_4_28 0
x_1_4_5 0
u_0_4_5 0
x_0_0_6 0
x_0_1_6 0
x_0_2_6 0
x_0_3_6 0
x_0_4_6 0
y_0_0_6 0
y_0_2_6 0
y_0_3_6 0
y_0_4_6 0
y_0_0_51 0
y_0_0_42 0
x_1_0_6 0
u_0_0_6 0
y_0_1_9 0
y_0_1_31 0
x_1_1_6 0
u_0_1_6 0
x_1_2_6 0
u_0_2_6 0
y_0_3_60 0
y_0_3_53 0
x_1_3_6 0
u_0_3_6 0
y_0_4_63 0
y_0_4_29 0
x_1_4_6 0
u_0_4_6 0
x_0_0_7 0
x_0_1_7 0
x_0_2_7 0
x_0_3_7 0
x_0_4_7 0
y_0_0_7 0
y_0_2_7 0
y_0_3_7 0
y_0_4_7 0
y_0_0_52 0
y_0_0_43 0
x_1_0_7 0
u_0_0_7 0
y_0_1_10 0
y_0_1_32 0
x_1_1_7 0
u_0_1_7 0
x_1_2_7 0
u_0_2_7 0
y_0_3_61 0
x_1_3_7 0
u_0_3_7 0
y_0_4_30 0
x_1_4_7 0
u_0_4_7 0
x_0_0_8 0
x_0_1_8 0
x_0_2_8 0
x_0_3_8 0
x_0_4_8 0
y_0_0_8 0
y_0_2_8 0
y_0_3_8 0
y_0_4_8 0
y_0_0_53 0
y_0_0_44 0
x_1_0_8 0
u_0_0_8 0
y_0_1_11 0
y_0_1_33 0
x_1_1_8 0
u_0_1_8 0
x_1_2_8 0
u_0_2_8 0
y_0_3_62 0
x_1_3_8 0
u_0_3_8 0
y_0_4_31 0
x_1_4_8 0
u_0_4_8 0
x_0_0_9 0
x_0_1_9 0
x_0_2_9 0
x_0_3_9 0
x_0_4_9 0
y_0_0_9 0
y_0_2_9 0
y_0_3_9 0
y_0_4_9 0
y_0_0_54 0
x_1_0_9 0
u_0_0_9 0
y_0_1_12 0
y_0_1_34 0
x_1_1_9 0
u_0_1_9 0
x_1_2_9 0
u_0_2_9 0
y_0_3_63 0
x_1_3_9 0
u_0_3_9 0
y_0_4_32 0
x_1_4_9 0
u_0_4_9 0
x_0_0_10 0
x_0_1_10 0
x_0_2_10 0
x_0_3_10 0
x_0_4_10 0
y_0_0_10 0
y_0_2_10 0
y_0_3_10 0
y_0_4_10 0
y_0_0_55 0
x_1_0_10 0
u_0_0_10 0
y_0_1_13 0
y_0_1_35 0
x_1_1_10 0
u_0_1_10 0
x_1_2_10 0
u_0_2_10 0
x_1_3_10 0
u_0_3_10 0
y_0_4_33 0
x_1_4_10 0
u_0_4_10 0
x_0_0_11 0
x_0_1_11 0
x_0_2_11 0
x_0_3_11 0
x_0_4_11 0
y_0_0_11 0
y_0_2_11 0
y_0_3_11 0
y_0_4_11 0
y_0_0_56 0
x_1_0_11 0
u_0_0_11 0
y_0_1_14 0
y_0_1_36 0
x_1_1_11 0
u_0_1_11 0
x_1_2_11 0
u_0_2_11 0
x_1_3_11 0
u_0_3_11 0
y_0_4_34 0
x_1_4_11 0
u_0_4_11 0
x_0_0_12 0
x_0_1_12 0
x_0_2_12 0
x_0_3_12 0
x_0_4_12 0
y_0_0_12 0
y_0_2_12 0
y_0_3_12 0
y_0_4_12 0
y_0_0_57 0
x_1_0_12 0
u_0_0_12 0
y_0_1_15 0
y_0_1_37 0
x_1_1_12 0
u_0_1_12 0
x_1_2_12 0
u_0_2_12 0
x_1_3_12 0
u_0_3_12 0
y_0_4_35 0
x_1_4_12 0
u_0_4_12 0
x_0_0_13 0
x_0_1_13 0
x_0_2_13 0
x_0_3_13 0
x_0_4_13 0
y_0_0_13 0
y_0_2_13 0
y_0_3_13 0
y_0_4_13 0
y_0_0_58 0
x_1_0_13 0
u_0_0_13 0
y_0_1_16 0
y_0_1_38 0
x_1_1_13 0
u_0_1_13 0
x_1_2_13 0
u_0_2_13 0
x_1_3_13 0
u_0_3_13 0
y_0_4_36 0
x_1_4_13 0
u_0_4_13 0
x_0_0_14 0
x_0_1_14 0
x_0_2_14 0
x_0_3_14 0
x_0_4_14 0
y_0_0_14 0
y_0_2_14 0
y_0_3_14 0
y_0_4_14 0
y_0_0_59 0
x_1_0_14 0
u_0_0_14 0
y_0_1_17 0
y_0_1_39 0
x_1_1_14 0
u_0_1_14 0
x_1_2_14 0
u_0_2_14 0
x_1_3_14 0
u_0_3_14 0
y_0_4_37 0
x_1_4_14 0
u_0_4_14 0
x_0_0_15 0
x_0_1_15 0
x_0_2_15 0
x_0_3_15 0
x_0_4_15 0
y_0_0_15 0
y_0_2_15 0
y_0_3_15 0
y_0_4_15 0
y_0_0_60 0
x_1_0_15 0
u_0_0_15 0
y_0_1_18 0
y_0_1_40 0
x_1_1_15 0
u_0_1_15 0
x_1_2_15 0
u_0_2_15 0
x_1_3_15 0
u_0_3_15 0
y_0_4_38 0
x_1_4_15 0
u_0_4_15 0
x_0_0_16 0
x_0_1_16 0
x_0_2_16 0
x_0_3_16 0
x_0_4_16 0
y_0_0_16 0
y_0_2_16 0
y_0_3_16 0
y_0_4_16 0
y_0_0_61 0
x_1_0_16 0
u_0_0_16 0
y_0_1_19 0
y_0_1_41 0
x_1_1_16 0
u_0_1_16 0
x_1_2_16 0
u_0_2_16 0
x_1_3_16 0
u_0_3_16 0
y_0_4_39 0
x_1_4_16 0
u_0_4_16 0
x_0_0_17 0
x_0_1_17 0
x_0_2_17 0
x_0_3_17 0
x_0_4_17 0
y_0_0_17 0
y_0_2_17 0
y_0_3_17 0
y_0_4_17 0
y_0_0_62 0
x_1_0_17 0
u_0_0_17 0
y_0_1_20 0
y_0_1_42 0
x_1_1_17 0
u_0_1_17 0
x_1_2_17 0
u_0_2_17 0
x_1_3_17 0
u_0_3_17 0
y_0_4_40 0
x_1_4_17 0
u_0_4_17 0
x_0_0_18 0
x_0_1_18 0
x_0_2_18 0
x_0_3_18 0
x_0_4_18 0
y_0_0_18 0
y_0_2_18 0
y_0_3_18 0
y_0_4_18 0
y_0_0_63 0
x_1_0_18 0
u_0_0_18 0
y_0_1_21 0
y_0_1_43 0
x_1_1_18 0
u_0_1_18 0
x_1_2_18 0
u_0_2_18 0
x_1_3_18 0
u_0_3_18 0
y_0_4_41 0
x_1_4_18 0
u_0_4_18 0
x_0_0_19 0
x_0_1_19 0
x_0_2_19 0
x_0_3_19 0
x_0_4_19 0
y_0_0_19 0
y_0_2_19 0
y_0_3_19 0
y_0_4_19 0
x_1_0_19 0
u_0_0_19 0
y_0_1_22 0
y_0_1_44 0
x_1_1_19 0
u_0_1_19 0
x_1_2_19 0
u_0_2_19 0
x_1_3_19 0
u_0_3_19 0
y_0_4_42 0
x_1_4_19 0
u_0_4_19 0
x_0_0_20 0
x_0_1_20 0
x_0_2_20 0
x_0_3_20 0
x_0_4_20 0
y_0_0_20 0
y_0_2_20 0
y_0_3_20 0
y_0_4_20 0
x_1_0_20 0
u_0_0_20 0
y_0_1_23 0
y_0_1_45 0
x_1_1_20 0
u_0_1_20 0
x_1_2_20 0
u_0_2_20 0
x_1_3_20 0
u_0_3_20 0
y_0_4_43 0
x_1_4_20 0
u_0_4_20 0
x_0_0_21 0
x_0_1_21 0
x_0_2_21 0
x_0_3_21 0
x_0_4_21 0
y_0_0_21 0
y_0_2_21 0
y_0_3_21 0
y_0_4_21 0
x_1_0_21 0
u_0_0_21 0
y_0_1_24 0
y_0_1_46 0
x_1_1_21 0
u_0_1_21 0
x_1_2_21 0
u_0_2_21 0
x_1_3_21 0
u_0_3_21 0
y_0_4_44 0
x_1_4_21 0
u_0_4_21 0
x_0_0_22 0
x_0_1_22 0
x_0_2_22 0
x_0_3_22 0
x_0_4_22 0
y_0_0_22 0
y_0_2_22 0
y_0_3_22 0
y_0_4_22 0
x_1_0_22 0
u_0_0_22 0
y_0_1_47 0
x_1_1_22 0
u_0_1_22 0
x_1_2_22 0
u_0_2_22 0
x_1_3_22 0
u_0_3_22 0
y_0_4_45 0
x_1_4_22 0
u_0_4_22 0
x_0_0_23 0
x_0_1_23 0
x_0_2_23 0
x_0_3_23 0
x_0_4_23 0
y_0_0_23 0
y_0_2_23 0
y_0_3_23 0
x_1_0_23 0
u_0_0_23 0
y_0_1_48 0
x_1_1_23 0
u_0_1_23 0
x_1_2_23 0
u_0_2_23 0
x_1_3_23 0
u_0_3_23 0
y_0_4_46 0
x_1_4_23 0
u_0_4_23 0
x_0_0_24 0
x_0_1_24 0
x_0_2_24 0
x_0_3_24 0
x_0_4_24 0
y_0_0_24 0
y_0_2_24 0
y_0_3_24 0
x_1_0_24 0
u_0_0_24 0
y_0_1_49 0
x_1_1_24 0
u_0_1_24 0
x_1_2_24 0
u_0_2_24 0
x_1_3_24 0
u_0_3_24 0
y_0_4_47 0
x_1_4_24 0
u_0_4_24 0
x_0_0_25 0
x_0_1_25 0
x_0_2_25 0
x_0_3_25 0
x_0_4_25 0
y_0_0_25 0
y_0_2_25 0
y_0_3_25 0
x_1_0_25 0
u_0_0_25 0
y_0_1_50 0
x_1_1_25 0
u_0_1_25 0
x_1_2_25 0
u_0_2_25 0
x_1_3_25 0
u_0_3_25 0
y_0_4_48 0
x_1_4_25 0
u_0_4_25 0
x_0_0_26 0
x_0_1_26 0
x_0_2_26 0
x_0_3_26 0
x_0_4_26 0
y_0_0_26 0
y_0_2_26 0
y_0_3_26 0
x_1_0_26 0
u_0_0_26 0
y_0_1_51 0
x_1_1_26 0
u_0_1_26 0
x_1_2_26 0
u_0_2_26 0
x_1_3_26 0
u_0_3_26 0
y_0_4_49 0
x_1_4_26 0
u_0_4_26 0
x_0_0_27 0
x_0_1_27 0
x_0_2_27 0
x_0_3_27 0
x_0_4_27 0
y_0_0_27 0
y_0_2_27 0
y_0_3_27 0
x_1_0_27 0
u_0_0_27 0
y_0_1_52 0
x_1_1_27 0
u_0_1_27 0
x_1_2_27 0
u_0_2_27 0
x_1_3_27 0
u_0_3_27 0
y_0_4_50 0
x_1_4_27 0
u_0_4_27 0
x_0_0_28 0
x_0_1_28 0
x_0_2_28 0
x_0_3_28 0
x_0_4_28 0
y_0_0_28 0
y_0_2_28 0
y_0_3_28 0
x_1_0_28 0
u_0_0_28 0
y_0_1_53 0
x_1_1_28 0
u_0_1_28 0
x_1_2_28 0
u_0_2_28 0
x_1_3_28 0
u_0_3_28 0
y_0_4_51 0
x_1_4_28 0
u_0_4_28 0
x_0_0_29 0
x_0_1_29 0
x_0_2_29 0
x_0_3_29 0
x_0_4_29 0
y_0_0_29 0
y_0_2_29 0
y_0_3_29 0
x_1_0_29 0
u_0_0_29 0
y_0_1_54 0
x_1_1_29 0
u_0_1_29 0
x_1_2_29 0
u_0_2_29 0
x_1_3_29 0
u_0_3_29 0
y_0_4_52 0
x_1_4_29 0
u_0_4_29 0
x_0_0_30 0
x_0_1_30 0
x_0_2_30 0
x_0_3_30 0
x_0_4_30 0
y_0_0_30 0
y_0_2_30 0
y_0_3_30 0
x_1_0_30 0
u_0_0_30 0
y_0_1_55 0
x_1_1_30 0
u_0_1_30 0
x_1_2_30 0
u_0_2_30 0
x_1_3_30 0
u_0_3_30 0
y_0_4_53 0
x_1_4_30 0
u_0_4_30 0
x_0_0_31 0
x_0_1_31 0
x_0_2_31 0
x_0_3_31 0
x_0_4_31 0
y_0_0_31 0
y_0_2_31 0
y_0_3_31 0
x_1_0_31 0
u_0_0_31 0
y_0_1_56 0
x_1_1_31 0
u_0_1_31 0
x_1_2_31 0
u_0_2_31 0
x_1_3_31 0
u_0_3_31 0
y_0_4_54 0
x_1_4_31 0
u_0_4_31 0
x_0_0_32 0
x_0_1_32 0
x_0_2_32 0
x_0_3_32 0
x_0_4_32 0
y_0_0_32 0
y_0_2_32 0
y_0_3_32 0
x_1_0_32 0
u_0_0_32 0
y_0_1_57 0
x_1_1_32 0
u_0_1_32 0
x_1_2_32 0
u_0_2_32 0
x_1_3_32 0
u_0_3_32 0
y_0_4_55 0
x_1_4_32 0
u_0_4_32 0
x_0_0_33 0
x_0_1_33 0
x_0_2_33 0
x_0_3_33 0
x_0_4_33 0
y_0_0_33 0
y_0_2_33 0
y_0_3_33 0
x_1_0_33 0
u_0_0_33 0
y_0_1_58 0
x_1_1_33 0
u_0_1_33 0
x_1_2_33 0
u_0_2_33 0
x_1_3_33 0
u_0_3_33 0
y_0_4_56 0
x_1_4_33 0
u_0_4_33 0
x_0_0_34 0
x_0_1_34 0
x_0_2_34 0
x_0_3_34 0
x_0_4_34 0
y_0_0_34 0
y_0_2_34 0
y_0_3_34 0
x_1_0_34 0
u_0_0_34 0
y_0_1_59 0
x_1_1_34 0
u_0_1_34 0
x_1_2_34 0
u_0_2_34 0
x_1_3_34 0
u_0_3_34 0
x_1_4_34 0
u_0_4_34 0
x_0_0_35 0
x_0_1_35 0
x_0_2_35 0
x_0_3_35 0
x_0_4_35 0
y_0_0_35 0
y_0_2_35 0
y_0_3_35 0
x_1_0_35 0
u_0_0_35 0
y_0_1_60 0
x_1_1_35 0
u_0_1_35 0
x_1_2_35 0
u_0_2_35 0
x_1_3_35 0
u_0_3_35 0
x_1_4_35 0
u_0_4_35 0
x_0_0_36 0
x_0_1_36 0
x_0_2_36 0
x_0_3_36 0
x_0_4_36 0
y_0_2_36 0
y_0_3_36 0
x_1_0_36 0
u_0_0_36 0
y_0_1_61 0
x_1_1_36 0
u_0_1_36 0
x_1_2_36 0
u_0_2_36 0
x_1_3_36 0
u_0_3_36 0
x_1_4_36 0
u_0_4_36 0
x_0_0_37 0
x_0_1_37 0
x_0_2_37 0
x_0_3_37 0
x_0_4_37 0
y_0_2_37 0
y_0_3_37 0
x_1_0_37 0
u_0_0_37 0
y_0_1_62 0
x_1_1_37 0
u_0_1_37 0
x_1_2_37 0
u_0_2_37 0
x_1_3_37 0
u_0_3_37 0
x_1_4_37 0
u_0_4_37 0
x_0_0_38 0
x_0_1_38 0
x_0_2_38 0
x_0_3_38 0
x_0_4_38 0
y_0_2_38 0
y_0_3_38 0
x_1_0_38 0
u_0_0_38 0
y_0_1_63 0
x_1_1_38 0
u_0_1_38 0
x_1_2_38 0
u_0_2_38 0
x_1_3_38 0
u_0_3_38 0
x_1_4_38 0
u_0_4_38 0
x_0_0_39 0
x_0_1_39 0
x_0_2_39 0
x_0_3_39 0
x_0_4_39 0
y_0_2_39 0
y_0_3_39 0
x_1_0_39 0
u_0_0_39 0
x_1_1_39 0
u_0_1_39 0
x_1_2_39 0
u_0_2_39 0
x_1_3_39 0
u_0_3_39 0
x_1_4_39 0
u_0_4_39 0
x_0_0_40 0
x_0_1_40 0
x_0_2_40 0
x_0_3_40 0
x_0_4_40 0
y_0_2_40 0
y_0_3_40 0
x_1_0_40 0
u_0_0_40 0
x_1_1_40 0
u_0_1_40 0
x_1_2_40 0
u_0_2_40 0
x_1_3_40 0
u_0_3_40 0
x_1_4_40 0
u_0_4_40 0
x_0_0_41 0
x_0_1_41 0
x_0_2_41 0
x_0_3_41 0
x_0_4_41 0
y_0_2_41 0
y_0_3_41 0
x_1_0_41 0
u_0_0_41 0
x_1_1_41 0
u_0_1_41 0
x_1_2_41 0
u_0_2_41 0
x_1_3_41 0
u_0_3_41 0
x_1_4_41 0
u_0_4_41 0
x_0_0_42 0
x_0_1_42 0
x_0_2_42 0
x_0_3_42 0
x_0_4_42 0
y_0_2_42 0
y_0_3_42 0
x_1_0_42 0
u_0_0_42 0
x_1_1_42 0
u_0_1_42 0
x_1_2_42 0
u_0_2_42 0
x_1_3_42 0
u_0_3_42 0
x_1_4_42 0
u_0_4_42 0
x_0_0_43 0
x_0_1_43 0
x_0_2_43 0
x_0_3_43 0
x_0_4_43 0
y_0_2_43 0
y_0_3_43 0
x_1_0_43 0
u_0_0_43 0
x_1_1_43 0
u_0_1_43 0
x_1_2_43 0
u_0_2_43 0
x_1_3_43 0
u_0_3_43 0
x_1_4_43 0
u_0_4_43 0
x_0_0_44 0
x_0_1_44 0
x_0_2_44 0
x_0_3_44 0
x_0_4_44 0
y_0_2_44 0
y_0_3_44 0
x_1_0_44 0
u_0_0_44 0
x_1_1_44 0
u_0_1_44 0
x_1_2_44 0
u_0_2_44 0
x_1_3_44 0
u_0_3_44 0
x_1_4_44 0
u_0_4_44 0
x_0_0_45 0
x_0_1_45 0
x_0_2_45 0
x_0_3_45 0
x_0_4_45 0
y_0_2_45 0
y_0_3_45 0
x_1_0_45 0
u_0_0_45 0
x_1_1_45 0
u_0_1_45 0
x_1_2_45 0
u_0_2_45 0
x_1_3_45 0
u_0_3_45 0
x_1_4_45 0
u_0_4_45 0
x_0_0_46 0
x_0_1_46 0
x_0_2_46 0
x_0_3_46 0
x_0_4_46 0
y_0_2_46 0
y_0_3_46 0
x_1_0_46 0
u_0_0_46 0
x_1_1_46 0
u_0_1_46 0
x_1_2_46 0
u_0_2_46 0
x_1_3_46 0
u_0_3_46 0
x_1_4_46 0
u_0_4_46 0
x_0_0_47 0
x_0_1_47 0
x_0_2_47 0
x_0_3_47 0
x_0_4_47 0
y_0_2_47 0
x_1_0_47 0
u_0_0_47 0
x_1_1_47 0
u_0_1_47 0
x_1_2_47 0
u_0_2_47 0
x_1_3_47 0
u_0_3_47 0
x_1_4_47 0
u_0_4_47 0
x_0_0_48 0
x_0_1_48 0
x_0_2_48 0
x_0_3_48 0
x_0_4_48 0
y_0_2_48 0
x_1_0_48 0
u_0_0_48 0
x_1_1_48 0
u_0_1_48 0
x_1_2_48 0
u_0_2_48 0
x_1_3_48 0
u_0_3_48 0
x_1_4_48 0
u_0_4_48 0
x_0_0_49 1
x_0_1_49 1
x_0_2_49 1
x_0_3_49 1
x_0_4_49 1
y_0_2_49 1
x_1_0_49 0
u_0_0_49 0
x_1_1_49 0
u_0_1_49 0
x_1_2_49 1
u_0_2_49 1
x_1_3_49 0
u_0_3_49 0
x_1_4_49 0
u_0_4_49 0
x_0_0_50 0
x_0_1_50 0
x_0_2_50 0
x_0_3_50 0
x_0_4_50 0
y_0_2_50 0
x_1_0_50 0
u_0_0_50 0
x_1_1_50 0
u_0_1_50 0
x_1_2_50 1
u_0_2_50 1
x_1_3_50 0
u_0_3_50 0
x_1_4_50 0
u_0_4_50 0
x_0_0_51 0
x_0_1_51 0
x_0_2_51 0
x_0_3_51 0
x_0_4_51 0
y_0_2_51 0
x_1_0_51 0
u_0_0_51 0
x_1_1_51 0
u_0_1_51 0
x_1_2_51 0
u_0_2_51 0
x_1_3_51 0
u_0_3_51 0
x_1_4_51 0
u_0_4_51 0
x_0_0_52 0
x_0_1_52 0
x_0_2_52 0
x_0_3_52 0
x_0_4_52 0
y_0_2_52 0
x_1_0_52 0
u_0_0_52 0
x_1_1_52 0
u_0_1_52 0
x_1_2_52 0
u_0_2_52 0
x_1_3_52 0
u_0_3_52 0
x_1_4_52 0
u_0_4_52 0
x_0_0_53 0
x_0_1_53 0
x_0_2_53 0
x_0_3_53 0
x_0_4_53 0
y_0_2_53 0
x_1_0_53 0
u_0_0_53 0
x_1_1_53 0
u_0_1_53 0
x_1_2_53 0
u_0_2_53 0
x_1_3_53 0
u_0_3_53 0
x_1_4_53 0
u_0_4_53 0
x_0_0_54 0
x_0_1_54 0
x_0_2_54 0
x_0_3_54 0
x_0_4_54 0
y_0_2_54 0
x_1_0_54 0
u_0_0_54 0
x_1_1_54 0
u_0_1_54 0
x_1_2_54 0
u_0_2_54 0
x_1_3_54 0
u_0_3_54 0
x_1_4_54 0
u_0_4_54 0
x_0_0_55 0
x_0_1_55 0
x_0_2_55 0
x_0_3_55 0
x_0_4_55 0
y_0_2_55 0
x_1_0_55 0
u_0_0_55 0
x_1_1_55 0
u_0_1_55 0
x_1_2_55 1
u_0_2_55 1
x_1_3_55 0
u_0_3_55 0
x_1_4_55 0
u_0_4_55 0
x_0_0_56 0
x_0_1_56 0
x_0_2_56 0
x_0_3_56 0
x_0_4_56 0
y_0_2_56 0
x_1_0_56 0
u_0_0_56 0
x_1_1_56 0
u_0_1_56 0
x_1_2_56 0
u_0_2_56 0
x_1_3_56 0
u_0_3_56 0
x_1_4_56 0
u_0_4_56 0
x_0_0_57 0
x_0_1_57 0
x_0_2_57 0
x_0_3_57 0
x_0_4_57 0
y_0_2_57 0
x_1_0_57 0
u_0_0_57 0
x_1_1_57 0
u_0_1_57 0
x_1_2_57 0
u_0_2_57 0
x_1_3_57 0
u_0_3_57 0
x_1_4_57 0
u_0_4_57 0
x_0_0_58 0
x_0_1_58 0
x_0_2_58 0
x_0_3_58 0
x_0_4_58 0
x_1_0_58 0
u_0_0_58 0
x_1_1_58 0
u_0_1_58 0
x_1_2_58 0
u_0_2_58 0
x_1_3_58 0
u_0_3_58 0
x_1_4_58 0
u_0_4_58 0
x_0_0_59 0
x_0_1_59 0
x_0_2_59 0
x_0_3_59 0
x_0_4_59 0
x_1_0_59 0
u_0_0_59 0
x_1_1_59 0
u_0_1_59 0
x_1_2_59 0
u_0_2_59 0
x_1_3_59 0
u_0_3_59 0
x_1_4_59 0
u_0_4_59 0
x_0_0_60 0
x_0_1_60 0
x_0_2_60 0
x_0_3_60 0
x_0_4_60 0
x_1_0_60 0
u_0_0_60 0
x_1_1_60 0
u_0_1_60 0
x_1_2_60 0
u_0_2_60 0
x_1_3_60 0
u_0_3_60 0
x_1_4_60 0
u_0_4_60 0
x_0_0_61 0
x_0_1_61 0
x_0_2_61 0
x_0_3_61 0
x_0_4_61 0
x_1_0_61 0
u_0_0_61 0
x_1_1_61 0
u_0_1_61 0
x_1_2_61 0
u_0_2_61 0
x_1_3_61 0
u_0_3_61 0
x_1_4_61 0
u_0_4_61 0
x_0_0_62 0
x_0_1_62 0
x_0_2_62 0
x_0_3_62 0
x_0_4_62 0
x_1_0_62 0
u_0_0_62 0
x_1_1_62 0
u_0_1_62 0
x_1_2_62 0
u_0_2_62 0
x_1_3_62 0
u_0_3_62 0
x_1_4_62 0
u_0_4_62 0
x_0_0_63 0
x_0_1_63 0
x_0_2_63 0
x_0_3_63 0
x_0_4_63 0
x_1_0_63 0
u_0_0_63 0
x_1_1_63 0
u_0_1_63 0
x_1_2_63 0
u_0_2_63 0
x_1_3_63 0
u_0_3_63 0
x_1_4_63 0
u_0_4_63 0
y_1_0_0 0
y_1_1_0 0
y_1_2_0 0
y_1_3_0 0
y_1_4_0 0
y_1_0_45 0
y_1_0_36 0
x_2_0_0 0
u_1_0_0 0
y_1_1_3 0
y_1_1_25 0
x_2_1_0 0
u_1_1_0 0
y_1_2_63 0
y_1_2_58 0
x_2_2_0 0
u_1_2_0 0
y_1_3_54 0
y_1_3_47 0
x_2_3_0 0
u_1_3_0 0
y_1_4_57 0
y_1_4_23 0
x_2_4_0 0
u_1_4_0 0
y_1_0_1 0
y_1_1_1 0
y_1_2_1 0
y_1_3_1 0
y_1_4_1 0
y_1_0_46 0
y_1_0_37 0
x_2_0_1 0
u_1_0_1 0
y_1_1_4 0
y_1_1_26 0
x_2_1_1 0
u_1_1_1 0
y_1_2_59 0
x_2_2_1 0
u_1_2_1 0
y_1_3_55 1
y_1_3_48 0
x_2_3_1 1
u_1_3_1 1
y_1_4_58 0
y_1_4_24 0
x_2_4_1 0
u_1_4_1 0
y_1_0_2 0
y_1_1_2 0
y_1_2_2 0
y_1_3_2 0
y_1_4_2 0
y_1_0_47 0
y_1_0_38 0
x_2_0_2 0
u_1_0_2 0
y_1_1_5 0
y_1_1_27 0
x_2_1_2 0
u_1_1_2 0
y_1_2_60 0
x_2_2_2 0
u_1_2_2 0
y_1_3_56 0
y_1_3_49 1
x_2_3_2 1
u_1_3_2 1
y_1_4_59 0
y_1_4_25 0
x_2_4_2 0
u_1_4_2 0
y_1_0_3 0
y_1_2_3 0
y_1_3_3 0
y_1_4_3 0
y_1_0_48 0
y_1_0_39 0
x_2_0_3 0
u_1_0_3 0
y_1_1_6 0
y_1_1_28 0
x_2_1_3 0
u_1_1_3 0
y_1_2_61 0
x_2_2_3 0
u_1_2_3 0
y_1_3_57 0
y_1_3_50 1
x_2_3_3 1
u_1_3_3 1
y_1_4_60 0
y_1_4_26 0
x_2_4_3 0
u_1_4_3 0
y_1_0_4 0
y_1_2_4 0
y_1_3_4 0
y_1_4_4 0
y_1_0_49 0
y_1_0_40 0
x_2_0_4 0
u_1_0_4 0
y_1_1_7 0
y_1_1_29 0
x_2_1_4 0
u_1_1_4 0
y_1_2_62 0
x_2_2_4 0
u_1_2_4 0
y_1_3_58 0
y_1_3_51 0
x_2_3_4 0
u_1_3_4 0
y_1_4_61 0
y_1_4_27 0
x_2_4_4 0
u_1_4_4 0
y_1_0_5 0
y_1_2_5 0
y_1_3_5 0
y_1_4_5 0
y_1_0_50 0
y_1_0_41 0
x_2_0_5 0
u_1_0_5 0
y_1_1_8 0
y_1_1_30 0
x_2_1_5 0
u_1_1_5 0
x_2_2_5 0
u_1_2_5 0
y_1_3_59 0
y_1_3_52 0
x_2_3_5 0
u_1_3_5 0
y_1_4_62 0
y_1_4_28 0
x_2_4_5 0
u_1_4_5 0
y_1_0_6 0
y_1_2_6 0
y_1_3_6 0
y_1_4_6 0
y_1_0_51 0
y_1_0_42 0
x_2_0_6 0
u_1_0_6 0
y_1_1_9 0
y_1_1_31 0
x_2_1_6 0
u_1_1_6 0
x_2_2_6 0
u_1_2_6 0
y_1_3_60 0
y_1_3_53 0
x_2_3_6 0
u_1_3_6 0
y_1_4_63 0
y_1_4_29 0
x_2_4_6 0
u_1_4_6 0
y_1_0_7 0
y_1_2_7 0
y_1_3_7 0
y_1_4_7 0
y_1_0_52 0
y_1_0_43 0
x_2_0_7 0
u_1_0_7 0
y_1_1_10 0
y_1_1_32 0
x_2_1_7 0
u_1_1_7 0
x_2_2_7 0
u_1_2_7 0
y_1_3_61 0
x_2_3_7 0
u_1_3_7 0
y_1_4_30 0
x_2_4_7 0
u_1_4_7 0
y_1_0_8 0
y_1_2_8 0
y_1_3_8 0
y_1_4_8 0
y_1_0_53 0
y_1_0_44 0
x_2_0_8 0
u_1_0_8 0
y_1_1_11 0
y_1_1_33 0
x_2_1_8 0
u_1_1_8 0
x_2_2_8 0
u_1_2_8 0
y_1_3_62 0
x_2_3_8 1
u_1_3_8 1
y_1_4_31 0
x_2_4_8 0
u_1_4_8 0
y_1_0_9 0
y_1_2_9 0
y_1_3_9 0
y_1_4_9 0
y_1_0_54 0
x_2_0_9 0
u_1_0_9 0
y_1_1_12 0
y_1_1_34 0
x_2_1_9 0
u_1_1_9 0
x_2_2_9 0
u_1_2_9 0
y_1_3_63 0
x_2_3_9 0
u_1_3_9 0
y_1_4_32 0
x_2_4_9 0
u_1_4_9 0
y_1_0_10 0
y_1_2_10 0
y_1_3_10 0
y_1_4_10 0
y_1_0_55 0
x_2_0_10 0
u_1_0_10 0
y_1_1_13 0
y_1_1_35 0
x_2_1_10 0
u_1_1_10 0
x_2_2_10 0
u_1_2_10 0
x_2_3_10 0
u_1_3_10 0
y_1_4_33 0
x_2_4_10 0
u_1_4_10 0
y_1_0_11 0
y_1_2_11 0
y_1_3_11 0
y_1_4_11 0
y_1_0_56 0
x_2_0_11 0
u_1_0_11 0
y_1_1_14 0
y_1_1_36 0
x_2_1_11 0
u_1_1_11 0
x_2_2_11 0
u_1_2_11 0
x_2_3_11 0
u_1_3_11 0
y_1_4_34 0
x_2_4_11 0
u_1_4_11 0
y_1_0_12 0
y_1_2_12 0
y_1_3_12 0
y_1_4_12 0
y_1_0_57 0
x_2_0_12 0
u_1_0_12 0
y_1_1_15 0
y_1_1_37 0
x_2_1_12 0
u_1_1_12 0
x_2_2_12 0
u_1_2_12 0
x_2_3_12 0
u_1_3_12 0
y_1_4_35 0
x_2_4_12 0
u_1_4_12 0
y_1_0_13 0
y_1_2_13 0
y_1_3_13 0
y_1_4_13 0
y_1_0_58 0
x_2_0_13 0
u_1_0_13 0
y_1_1_16 0
y_1_1_38 0
x_2_1_13 0
u_1_1_13 0
x_2_2_13 0
u_1_2_13 0
x_2_3_13 0
u_1_3_13 0
y_1_4_36 0
x_2_4_13 0
u_1_4_13 0
y_1_0_14 0
y_1_2_14 0
y_1_3_14 0
y_1_4_14 0
y_1_0_59 0
x_2_0_14 0
u_1_0_14 0
y_1_1_17 0
y_1_1_39 0
x_2_1_14 0
u_1_1_14 0
x_2_2_14 0
u_1_2_14 0
x_2_3_14 0
u_1_3_14 0
y_1_4_37 0
x_2_4_14 0
u_1_4_14 0
y_1_0_15 0
y_1_2_15 0
y_1_3_15 0
y_1_4_15 0
y_1_0_60 0
x_2_0_15 0
u_1_0_15 0
y_1_1_18 0
y_1_1_40 0
x_2_1_15 0
u_1_1_15 0
x_2_2_15 0
u_1_2_15 0
x_2_3_15 0
u_1_3_15 0
y_1_4_38 0
x_2_4_15 0
u_1_4_15 0
y_1_0_16 0
y_1_2_16 0
y_1_3_16 0
y_1_4_16 0
y_1_0_61 0
x_2_0_16 0
u_1_0_16 0
y_1_1_19 0
y_1_1_41 0
x_2_1_16 0
u_1_1_16 0
x_2_2_16 0
u_1_2_16 0
x_2_3_16 0
u_1_3_16 0
y_1_4_39 0
x_2_4_16 0
u_1_4_16 0
y_1_0_17 0
y_1_2_17 0
y_1_3_17 0
y_1_4_17 0
y_1_0_62 0
x_2_0_17 0
u_1_0_17 0
y_1_1_20 0
y_1_1_42 0
x_2_1_17 0
u_1_1_17 0
x_2_2_17 0
u_1_2_17 0
x_2_3_17 0
u_1_3_17 0
y_1_4_40 0
x_2_4_17 0
u_1_4_17 0
y_1_0_18 0
y_1_2_18 0
y_1_3_18 0
y_1_4_18 0
y_1_0_63 0
x_2_0_18 0
u_1_0_18 0
y_1_1_21 0
y_1_1_43 0
x_2_1_18 0
u_1_1_18 0
x_2_2_18 0
u_1_2_18 0
x_2_3_18 0
u_1_3_18 0
y_1_4_41 0
x_2_4_18 0
u_1_4_18 0
y_1_0_19 0
y_1_2_19 0
y_1_3_19 0
y_1_4_19 0
x_2_0_19 0
u_1_0_19 0
y_1_1_22 0
y_1_1_44 0
x_2_1_19 0
u_1_1_19 0
x_2_2_19 0
u_1_2_19 0
x_2_3_19 0
u_1_3_19 0
y_1_4_42 0
x_2_4_19 0
u_1_4_19 0
y_1_0_20 0
y_1_2_20 0
y_1_3_20 0
y_1_4_20 0
x_2_0_20 0
u_1_0_20 0
y_1_1_23 0
y_1_1_45 0
x_2_1_20 0
u_1_1_20 0
x_2_2_20 0
u_1_2_20 0
x_2_3_20 0
u_1_3_20 0
y_1_4_43 0
x_2_4_20 0
u_1_4_20 0
y_1_0_21 0
y_1_2_21 0
y_1_3_21 0
y_1_4_21 0
x_2_0_21 0
u_1_0_21 0
y_1_1_24 0
y_1_1_46 0
x_2_1_21 0
u_1_1_21 0
x_2_2_21 0
u_1_2_21 0
x_2_3_21 0
u_1_3_21 0
y_1_4_44 0
x_2_4_21 0
u_1_4_21 0
y_1_0_22 0
y_1_2_22 0
y_1_3_22 0
y_1_4_22 0
x_2_0_22 0
u_1_0_22 0
y_1_1_47 0
x_2_1_22 0
u_1_1_22 0
x_2_2_22 0
u_1_2_22 0
x_2_3_22 0
u_1_3_22 0
y_1_4_45 0
x_2_4_22 0
u_1_4_22 0
y_1_0_23 0
y_1_2_23 0
y_1_3_23 0
x_2_0_23 0
u_1_0_23 0
y_1_1_48 0
x_2_1_23 0
u_1_1_23 0
x_2_2_23 0
u_1_2_23 0
x_2_3_23 0
u_1_3_23 0
y_1_4_46 0
x_2_4_23 0
u_1_4_23 0
y_1_0_24 0
y_1_2_24 0
y_1_3_24 0
x_2_0_24 0
u_1_0_24 0
y_1_1_49 0
x_2_1_24 0
u_1_1_24 0
x_2_2_24 0
u_1_2_24 0
x_2_3_24 0
u_1_3_24 0
y_1_4_47 0
x_2_4_24 0
u_1_4_24 0
y_1_0_25 0
y_1_2_25 0
y_1_3_25 0
x_2_0_25 0
u_1_0_25 0
y_1_1_50 0
x_2_1_25 0
u_1_1_25 0
x_2_2_25 0
u_1_2_25 0
x_2_3_25 0
u_1_3_25 0
y_1_4_48 0
x_2_4_25 0
u_1_4_25 0
y_1_0_26 0
y_1_2_26 0
y_1_3_26 0
x_2_0_26 0
u_1_0_26 0
y_1_1_51 0
x_2_1_26 0
u_1_1_26 0
x_2_2_26 0
u_1_2_26 0
x_2_3_26 0
u_1_3_26 0
y_1_4_49 0
x_2_4_26 0
u_1_4_26 0
y_1_0_27 0
y_1_2_27 0
y_1_3_27 0
x_2_0_27 0
u_1_0_27 0
y_1_1_52 0
x_2_1_27 0
u_1_1_27 0
x_2_2_27 0
u_1_2_27 0
x_2_3_27 0
u_1_3_27 0
y_1_4_50 0
x_2_4_27 0
u_1_4_27 0
y_1_0_28 0
y_1_2_28 0
y_1_3_28 0
x_2_0_28 0
u_1_0_28 0
y_1_1_53 0
x_2_1_28 0
u_1_1_28 0
x_2_2_28 0
u_1_2_28 0
x_2_3_28 0
u_1_3_28 0
y_1_4_51 0
x_2_4_28 0
u_1_4_28 0
y_1_0_29 0
y_1_2_29 0
y_1_3_29 0
x_2_0_29 0
u_1_0_29 0
y_1_1_54 0
x_2_1_29 0
u_1_1_29 0
x_2_2_29 0
u_1_2_29 0
x_2_3_29 0
u_1_3_29 0
y_1_4_52 0
x_2_4_29 0
u_1_4_29 0
y_1_0_30 0
y_1_2_30 0
y_1_3_30 0
x_2_0_30 0
u_1_0_30 0
y_1_1_55 0
x_2_1_30 0
u_1_1_30 0
x_2_2_30 0
u_1_2_30 0
x_2_3_30 0
u_1_3_30 0
y_1_4_53 0
x_2_4_30 0
u_1_4_30 0
y_1_0_31 0
y_1_2_31 0
y_1_3_31 0
x_2_0_31 0
u_1_0_31 0
y_1_1_56 0
x_2_1_31 0
u_1_1_31 0
x_2_2_31 0
u_1_2_31 0
x_2_3_31 0
u_1_3_31 0
y_1_4_54 0
x_2_4_31 0
u_1_4_31 0
y_1_0_32 0
y_1_2_32 0
y_1_3_32 0
x_2_0_32 0
u_1_0_32 0
y_1_1_57 0
x_2_1_32 0
u_1_1_32 0
x_2_2_32 0
u_1_2_32 0
x_2_3_32 0
u_1_3_32 0
y_1_4_55 0
x_2_4_32 0
u_1_4_32 0
y_1_0_33 0
y_1_2_33 0
y_1_3_33 0
x_2_0_33 0
u_1_0_33 0
y_1_1_58 0
x_2_1_33 0
u_1_1_33 0
x_2_2_33 0
u_1_2_33 0
x_2_3_33 0
u_1_3_33 0
y_1_4_56 0
x_2_4_33 0
u_1_4_33 0
y_1_0_34 0
y_1_2_34 0
y_1_3_34 0
x_2_0_34 0
u_1_0_34 0
y_1_1_59 0
x_2_1_34 0
u_1_1_34 0
x_2_2_34 0
u_1_2_34 0
x_2_3_34 0
u_1_3_34 0
x_2_4_34 0
u_1_4_34 0
y_1_0_35 0
y_1_2_35 0
y_1_3_35 0
x_2_0_35 0
u_1_0_35 0
y_1_1_60 0
x_2_1_35 0
u_1_1_35 0
x_2_2_35 0
u_1_2_35 0
x_2_3_35 0
u_1_3_35 0
x_2_4_35 0
u_1_4_35 0
y_1_2_36 0
y_1_3_36 0
x_2_0_36 0
u_1_0_36 0
y_1_1_61 0
x_2_1_36 0
u_1_1_36 0
x_2_2_36 0
u_1_2_36 0
x_2_3_36 0
u_1_3_36 0
x_2_4_36 0
u_1_4_36 0
y_1_2_37 0
y_1_3_37 0
x_2_0_37 0
u_1_0_37 0
y_1_1_62 0
x_2_1_37 0
u_1_1_37 0
x_2_2_37 0
u_1_2_37 0
x_2_3_37 0
u_1_3_37 0
x_2_4_37 0
u_1_4_37 0
y_1_2_38 0
y_1_3_38 0
x_2_0_38 0
u_1_0_38 0
y_1_1_63 0
x_2_1_38 0
u_1_1_38 0
x_2_2_38 0
u_1_2_38 0
x_2_3_38 0
u_1_3_38 0
x_2_4_38 0
u_1_4_38 0
y_1_2_39 0
y_1_3_39 0
x_2_0_39 0
u_1_0_39 0
x_2_1_39 0
u_1_1_39 0
x_2_2_39 0
u_1_2_39 0
x_2_3_39 0
u_1_3_39 0
x_2_4_39 0
u_1_4_39 0
y_1_2_40 0
y_1_3_40 0
x_2_0_40 0
u_1_0_40 0
x_2_1_40 0
u_1_1_40 0
x_2_2_40 0
u_1_2_40 0
x_2_3_40 0
u_1_3_40 0
x_2_4_40 0
u_1_4_40 0
y_1_2_41 0
y_1_3_41 0
x_2_0_41 0
u_1_0_41 0
x_2_1_41 0
u_1_1_41 0
x_2_2_41 0
u_1_2_41 0
x_2_3_41 0
u_1_3_41 0
x_2_4_41 0
u_1_4_41 0
y_1_2_42 0
y_1_3_42 0
x_2_0_42 0
u_1_0_42 0
x_2_1_42 0
u_1_1_42 0
x_2_2_42 0
u_1_2_42 0
x_2_3_42 0
u_1_3_42 0
x_2_4_42 0
u_1_4_42 0
y_1_2_43 0
y_1_3_43 0
x_2_0_43 0
u_1_0_43 0
x_2_1_43 0
u_1_1_43 0
x_2_2_43 0
u_1_2_43 0
x_2_3_43 0
u_1_3_43 0
x_2_4_43 0
u_1_4_43 0
y_1_2_44 0
y_1_3_44 0
x_2_0_44 0
u_1_0_44 0
x_2_1_44 0
u_1_1_44 0
x_2_2_44 0
u_1_2_44 0
x_2_3_44 0
u_1_3_44 0
x_2_4_44 0
u_1_4_44 0
y_1_2_45 0
y_1_3_45 0
x_2_0_45 0
u_1_0_45 0
x_2_1_45 0
u_1_1_45 0
x_2_2_45 0
u_1_2_45 0
x_2_3_45 0
u_1_3_45 0
x_2_4_45 0
u_1_4_45 0
y_1_2_46 0
y_1_3_46 0
x_2_0_46 0
u_1_0_46 0
x_2_1_46 0
u_1_1_46 0
x_2_2_46 0
u_1_2_46 0
x_2_3_46 0
u_1_3_46 0
x_2_4_46 0
u_1_4_46 0
y_1_2_47 0
x_2_0_47 0
u_1_0_47 0
x_2_1_47 0
u_1_1_47 0
x_2_2_47 0
u_1_2_47 0
x_2_3_47 0
u_1_3_47 0
x_2_4_47 0
u_1_4_47 0
y_1_2_48 0
x_2_0_48 0
u_1_0_48 0
x_2_1_48 0
u_1_1_48 0
x_2_2_48 0
u_1_2_48 0
x_2_3_48 0
u_1_3_48 0
x_2_4_48 0
u_1_4_48 0
y_1_2_49 1
x_2_0_49 0
u_1_0_49 0
x_2_1_49 0
u_1_1_49 0
x_2_2_49 1
u_1_2_49 1
x_2_3_49 1
u_1_3_49 1
x_2_4_49 0
u_1_4_49 0
y_1_2_50 1
x_2_0_50 0
u_1_0_50 0
x_2_1_50 0
u_1_1_50 0
x_2_2_50 0
u_1_2_50 1
x_2_3_50 1
u_1_3_50 1
x_2_4_50 0
u_1_4_50 0
y_1_2_51 0
x_2_0_51 0
u_1_0_51 0
x_2_1_51 0
u_1_1_51 0
x_2_2_51 1
u_1_2_51 1
x_2_3_51 0
u_1_3_51 0
x_2_4_51 0
u_1_4_51 0
y_1_2_52 0
x_2_0_52 0
u_1_0_52 0
x_2_1_52 0
u_1_1_52 0
x_2_2_52 0
u_1_2_52 0
x_2_3_52 0
u_1_3_52 0
x_2_4_52 0
u_1_4_52 0
y_1_2_53 0
x_2_0_53 0
u_1_0_53 0
x_2_1_53 0
u_1_1_53 0
x_2_2_53 0
u_1_2_53 0
x_2_3_53 0
u_1_3_53 0
x_2_4_53 0
u_1_4_53 0
y_1_2_54 0
x_2_0_54 0
u_1_0_54 0
x_2_1_54 0
u_1_1_54 0
x_2_2_54 0
u_1_2_54 0
x_2_3_54 0
u_1_3_54 0
x_2_4_54 0
u_1_4_54 0
y_1_2_55 1
x_2_0_55 0
u_1_0_55 0
x_2_1_55 0
u_1_1_55 0
x_2_2_55 0
u_1_2_55 1
x_2_3_55 1
u_1_3_55 1
x_2_4_55 0
u_1_4_55 0
y_1_2_56 0
x_2_0_56 0
u_1_0_56 0
x_2_1_56 0
u_1_1_56 0
x_2_2_56 0
u_1_2_56 1
x_2_3_56 0
u_1_3_56 0
x_2_4_56 0
u_1_4_56 0
y_1_2_57 0
x_2_0_57 0
u_1_0_57 0
x_2_1_57 0
u_1_1_57 0
x_2_2_57 0
u_1_2_57 0
x_2_3_57 0
u_1_3_57 0
x_2_4_57 0
u_1_4_57 0
x_2_0_58 0
u_1_0_58 0
x_2_1_58 0
u_1_1_58 0
x_2_2_58 0
u_1_2_58 0
x_2_3_58 0
u_1_3_58 0
x_2_4_58 0
u_1_4_58 0
x_2_0_59 0
u_1_0_59 0
x_2_1_59 0
u_1_1_59 0
x_2_2_59 0
u_1_2_59 0
x_2_3_59 1
u_1_3_59 1
x_2_4_59 0
u_1_4_59 0
x_2_0_60 0
u_1_0_60 0
x_2_1_60 0
u_1_1_60 0
x_2_2_60 0
u_1_2_60 0
x_2_3_60 1
u_1_3_60 1
x_2_4_60 0
u_1_4_60 0
x_2_0_61 0
u_1_0_61 0
x_2_1_61 0
u_1_1_61 0
x_2_2_61 1
u_1_2_61 1
x_2_3_61 0
u_1_3_61 0
x_2_4_61 0
u_1_4_61 0
x_2_0_62 0
u_1_0_62 0
x_2_1_62 0
u_1_1_62 0
x_2_2_62 0
u_1_2_62 0
x_2_3_62 0
u_1_3_62 0
x_2_4_62 0
u_1_4_62 0
x_2_0_63 0
u_1_0_63 0
x_2_1_63 0
u_1_1_63 0
x_2_2_63 0
u_1_2_63 0
x_2_3_63 0
u_1_3_63 0
x_2_4_63 0
u_1_4_63 0
